p edge 20 84
e 1 2
e 1 3
e 1 4
e 1 5
e 1 6
e 1 8
e 1 11
e 1 15
e 2 4
e 2 6
e 2 7
e 2 8
e 2 9
e 2 10
e 2 14
e 2 16
e 2 17
e 2 19
e 3 8
e 3 10
e 3 12
e 3 15
e 3 16
e 3 17
e 3 18
e 3 19
e 3 20
e 4 6
e 4 7
e 4 8
e 4 11
e 4 12
e 4 18
e 5 10
e 5 11
e 5 13
e 5 15
e 5 20
e 6 7
e 6 10
e 6 12
e 6 16
e 6 17
e 6 19
e 6 20
e 7 11
e 7 12
e 7 13
e 7 16
e 7 19
e 8 9
e 8 11
e 8 13
e 8 16
e 8 19
e 9 10
e 9 13
e 9 15
e 9 18
e 9 19
e 9 20
e 10 12
e 10 16
e 10 18
e 10 19
e 11 14
e 11 15
e 11 16
e 11 18
e 12 15
e 12 17
e 12 18
e 13 14
e 13 15
e 14 16
e 14 17
e 14 18
e 14 20
e 15 19
e 16 17
e 17 18
e 17 20
e 18 20
e 19 20